sat
(:elim-unconstrained  2
 :max-memory          18.43
 :memory              18.33
 :nlsat-arith-var     3
 :nlsat-atoms         7
 :nlsat-bool-var      1
 :nlsat-clauses       4
 :nlsat-conflicts     2
 :nlsat-propagations  8
 :nlsat-stages        6
 :num-allocs          50515
 :rlimit-count        718
 :solve-eqs-elim-vars 1
 :solve-eqs-steps     1
 :time                0.00
 :total-time          0.01)
